%Mem=10000MB
%NProcShared=16
%chk=products_scan.chk
#P opt=ModRedundant B3LYP/6-31g(d,p) 

optimize the reactants with B3LYP in PCM water

0 1
O           0.63153         1.77200         1.00931
H          -0.87287         1.78886         1.65651
H           1.43307         1.85916         1.55217
C          -5.72083        -2.21543        -1.16570
H          -6.46557        -2.40167        -0.38104
H          -5.68675        -3.09339        -1.81180
H          -6.05807        -1.36567        -1.77590
N          -4.39347        -2.01458        -0.62251
H          -3.61632        -2.66746        -0.91805
C          -4.07421        -1.02347         0.20949
N          -5.00792        -0.14265         0.64667
H          -5.89946        -0.12113         0.17952
H          -4.68230         0.74116         1.04029
N          -2.82304        -0.92648         0.65804
H          -2.06974        -1.50766         0.22364
H          -2.56726        -0.13812         1.24012
C          -0.14505        -4.29314        -1.76837
H          -0.58513        -5.17257        -2.23954
H           0.52714        -4.59904        -0.96088
H           0.46252        -3.75239        -2.50166
C          -1.22943        -3.37249        -1.22005
O          -2.42907        -3.66544        -1.43296
O          -0.83249        -2.33853        -0.57133
H           0.76376        -1.99520        -0.18626
C          -1.94159         3.95713         1.13856
H          -2.63567         4.63094         0.63819
H          -1.04835         3.80107         0.52757
H          -1.62000         4.41038         2.08279
C          -2.63143         2.64358         1.42709
O          -3.83538         2.48028         1.33961
O          -1.84563         1.63307         1.83119
O           1.66327        -1.65244         0.06690
C           0.82199         0.64860         0.11191
C           1.48919        -0.54281         0.89744
C           2.81896        -0.12916         1.49883
C           4.00938        -0.28882         0.77577
C           5.22219         0.13747         1.31317
C           5.26748         0.73674         2.57561
C           4.09168         0.89353         3.30716
C           2.87539         0.45634         2.77269
C           1.53214         1.05545        -1.16167
C           2.35014         2.18805        -1.23136
C           2.99842         2.52430        -2.42122
C           2.83727         1.72997        -3.55608
C           2.01745         0.60082        -3.49627
C           1.36613         0.26758        -2.31004
H          -0.18808         0.31695        -0.14578
H           0.79392        -0.75887         1.72766
H           3.96657        -0.76409        -0.19717
H           6.13849         0.00209         0.74556
H           6.21586         1.06667         2.98960
H           4.11857         1.33638         4.29871
H           1.96888         0.53152         3.37069
H           2.47130         2.82221        -0.35927
H           3.62763         3.40908        -2.45935
H           3.34029         1.99199        -4.48247
H           1.87886        -0.01863        -4.37776
H           0.72447        -0.60620        -2.26414

1 33 S 180 0.01
