%nproc=1
%chk=H2O	
%Mem=1GB
# HF/6-31G* scrf=smd opt

Water molecule

0 1
O         -1.44889        0.90910        0.01445
H         -0.48100        0.87705       -0.01914
H         -1.72774        0.26849       -0.65698

