%Mem=10000MB
%NProcShared=16
%chk=reactants_scan.chk
#P opt=ModRedundant B3LYP/6-31g(d,p)

optimize the reactants with B3LYP in PCM water

0 1
O           0.54829         0.26178         0.84451
H           0.18817         1.13594         1.15714
H           1.20989        -0.05229         1.49779
C           2.64760         3.93467        -3.26856
H           2.80311         4.86350        -3.80873
C           1.75923         3.88240        -2.19302
H           1.21816         4.77489        -1.89077
C           3.33220         2.77633        -3.64298
H           4.02496         2.79944        -4.47999
C           1.54990         2.69550        -1.48935
H           0.85659         2.66916        -0.65302
C           3.13346         1.58229        -2.95252
H           3.65577         0.67467        -3.24037
C           2.24167         1.53791        -1.87328
O           2.08408         0.34345        -1.22366
H           1.40917         0.40546        -0.46705
C           4.89550        -1.25515         2.91568
H           4.82646        -0.66971         3.83565
H           5.89789        -1.14774         2.49403
H           4.73300        -2.30310         3.18285
C           3.78673        -0.81538         1.97582
O           2.61056        -0.81426         2.36430
N           4.15767        -0.44847         0.73264
H           3.46384        -0.16474         0.03720
H           5.12802        -0.45214         0.46433
C          -6.30845         3.30263        -0.55313
H          -6.70645         3.48135         0.45485
H          -7.08353         2.79947        -1.13228
H          -6.10705         4.27132        -1.02789
N          -5.13492         2.45344        -0.53766
H          -5.18669         1.54481        -0.99972
C          -3.96976         2.79052         0.05623
N          -3.83253         3.96016         0.69068
H          -4.63639         4.54913         0.82497
H          -2.94870         4.16442         1.22704
N          -2.93486         1.95837        -0.00483
H          -3.02996         1.06873        -0.47856
H          -2.04265         2.20001         0.48499
C          -4.64864        -2.41927        -2.38863
H          -5.68032        -2.55526        -2.70933
H          -4.38221        -3.17556        -1.64462
H          -3.97732        -2.55399        -3.24295
C          -4.47726        -1.02986        -1.81709
O          -5.35858        -0.18717        -1.82720
O          -3.28062        -0.74322        -1.29469
H          -2.63828        -1.51399        -1.28752
C           0.63545         3.86122         2.85200
H           0.52037         4.73654         3.49228
H           1.48489         4.01194         2.17735
H           0.86103         2.98154         3.46309
C          -0.62777         3.61693         2.03294
O          -1.56637         4.44059         2.11160
O          -0.63560         2.56838         1.29358
O          -1.54048        -2.70122        -1.15929
C          -0.14940        -2.38335        -1.45433
C          -0.59727        -2.59109        -0.04968
C          -0.33939        -3.81186         0.76441
C          -1.03347        -5.00905         0.56183
C          -0.77058        -6.11939         1.36537
C           0.18692        -6.04216         2.37661
C           0.87509        -4.84502         2.58766
C           0.61203        -3.73114         1.79237
C           0.63602        -3.35158        -2.26808
C           1.94724        -2.99646        -2.61714
C           2.73062        -3.86715        -3.37214
C           2.21033        -5.09144        -3.79815
C           0.90064        -5.43921        -3.46648
C           0.11493        -4.57413        -2.70395
H           0.00555        -1.33910        -1.72344
H          -0.69827        -1.66409         0.51545
H          -1.78972        -5.06028        -0.21357
H          -1.31807        -7.04336         1.20255
H           0.39080        -6.90648         3.00198
H           1.61441        -4.77443         3.38021
H           1.14471        -2.80015         1.96976
H           2.34051        -2.03624        -2.29382
H           3.74624        -3.58639        -3.63597
H           2.82010        -5.76643        -4.39160
H           0.48654        -6.38495        -3.80402
H          -0.90758        -4.83530        -2.45765

1 55 S 212 -0.01
