%chk=ASH_gesp
#HF/6-31G* scrf=smd SCF=tight Test Pop=MK iop(6/33=2) iop(6/42=6)
# iop(6/50=1)

calc RESP charges
   
0  1
  C     1.945005   -0.122547    0.043048
  O     2.223559    0.711988    0.854591
  O     2.917058   -0.808580   -0.536420
  H     2.591082   -1.455762   -1.157105
  C     0.544005   -0.483345   -0.377877
  C    -0.524136    0.390879    0.284763
  H     0.406177   -1.530946   -0.128551
  H     0.478714   -0.398226   -1.457271
  N    -0.475166    1.740759   -0.240857
  H     0.385013    2.161785    0.054592
  H    -1.210682    2.284098    0.172020
  C    -1.889110   -0.214910    0.004967
  H    -0.383597    0.347296    1.361518
  O    -2.684896    0.236069   -0.763292
  O    -2.189693   -1.320379    0.670639
  H    -1.523360   -1.566807    1.307245

g09.gesp

g09.gesp

