%Mem=8192MB
%NProcShared=8
%chk=090871686.chk
#P B3LYP/6-31g* Opt=(MaxCycle=900)

first AM1 optimization

0 1
O       0       2.59170       0.77613       -0.00016
H       0       3.04570       0.20313       0.64484
C       0       0.44270       1.87513       -0.42516
H       0       1.04870       2.57413       -1.01816
C       0       -0.15830       0.84713       -1.38916
C       0       -1.35830       0.17013       -1.08316
C       0       -1.89930       -0.75787       -1.98816
C       0       -1.24530       -1.01787       -3.20316
C       0       -0.04130       -0.36187       -3.50316
C       0       0.50070       0.56813       -2.60116
C       0       1.39670       1.25213       0.62984
C       0       0.73970       0.14013       1.45284
C       0       0.71570       -1.19187       0.99084
C       0       0.11770       -2.19887       1.76584
C       0       -0.46630       -1.88087       3.00284
C       0       -0.45830       -0.55387       3.46084
C       0       0.13870       0.45413       2.68684
O       0       -0.59430       2.60613       0.23584
H       0       -1.29530       2.76713       -0.42116
H       0       -1.86630       0.35113       -0.14016
H       0       -2.81930       -1.28087       -1.74516
H       0       -1.66230       -1.73687       -3.90216
H       0       0.47170       -0.57287       -4.43716
H       0       1.43770       1.06413       -2.83916
H       0       1.66170       2.06413       1.32184
H       0       1.15370       -1.44787       0.02884
H       0       0.10270       -3.22387       1.40684
H       0       -0.92230       -2.66087       3.60584
H       0       -0.91230       -0.30687       4.41684
H       0       0.13370       1.48013       3.04584

--link1--
%chk=090871686.chk
#P HF/6-31G* SCF=(Tight,MaxCycle=900) Geom=AllCheck Guess=Read Pop=MK IOp(6/33=2,6/41=10,6/42=17)
