%Mem=8192MB
%NProcShared=8
%chk=098457434.chk
#P B3LYP/6-31g* Opt=(MaxCycle=900)

first AM1 optimization

0 1
O       0       2.16551       1.40218       -0.25125
C       0       0.83751       1.89718       -0.49725
C       0       -0.06749       1.12918       -1.37325
C       0       -1.41349       0.87318       -1.07825
C       0       -2.19249       0.16518       -1.99525
C       0       -1.63249       -0.32382       -3.17725
C       0       -0.27949       -0.10282       -3.44625
C       0       0.50251       0.61818       -2.54925
C       0       1.26551       1.47018       0.87275
C       0       0.89351       0.20618       1.53275
C       0       1.83951       -0.76182       1.87475
C       0       1.43451       -1.92282       2.54375
C       0       0.09251       -2.11182       2.87375
C       0       -0.84949       -1.13782       2.54575
C       0       -0.44849       0.02018       1.88175
H       0       0.41951       2.72918       -0.86325
H       0       -1.81149       1.19518       -0.22025
H       0       -3.16149       0.00518       -1.80325
H       0       -2.19749       -0.82882       -3.82825
H       0       0.12851       -0.46482       -4.28425
H       0       1.47051       0.77418       -2.74225
H       0       1.21651       1.91118       1.76875
H       0       2.80351       -0.62682       1.64375
H       0       2.11051       -2.61882       2.78575
H       0       -0.19249       -2.94682       3.34475
H       0       -1.81049       -1.26982       2.78675
H       0       -1.12349       0.72018       1.65475

--link1--
%chk=098457434.chk
#P HF/6-31G* SCF=(Tight,MaxCycle=900) Geom=AllCheck Guess=Read Pop=MK IOp(6/33=2,6/41=10,6/42=17)
