%chk=STO_gesp
#HF/6-31G* scrf=smd SCF=tight Test Pop=MK iop(6/33=2) iop(6/42=6)
# iop(6/50=1)

calc RESP charges

0  1
    O   -0.000063    2.281362   -0.894122
    C   -0.731976    1.852848    0.236439
    C   -1.574024    0.624306    0.109228
    C   -2.169258    0.107264    1.256852
    C   -2.966246   -1.022335    1.186395
    C   -3.185475   -1.644248   -0.035625
    C   -2.603877   -1.127278   -1.181440
    C   -1.799954    0.002695   -1.110862
    C    0.732093    1.852802    0.236270
    C    1.574079    0.624246    0.108846
    C    1.798565    0.001777   -1.111082
    C    2.602431   -1.128219   -1.181827
    C    3.185396   -1.644392   -0.036342
    C    2.967603   -1.021639    1.185501
    C    2.170698    0.108015    1.256113
    H   -1.205300    2.661807    0.767186
    H   -2.007754    0.590156    2.205093
    H   -3.416931   -1.415050    2.080177
    H   -3.806846   -2.519949   -0.091977
    H   -2.774380   -1.599419   -2.132458
    H   -1.358596    0.399794   -2.005240
    H    1.205579    2.661726    0.766922
    H    1.356158    0.398251   -2.005215
    H    2.771828   -1.601006   -2.132722
    H    3.806720   -2.520117   -0.092829
    H    3.419357   -1.413718    2.079022
    H    2.010336    0.591573    2.204207

g09.gesp

g09.gesp
