%Mem=10000MB
%NProcShared=8
%chk=QST3.chk
#P opt=QST3 B3LYP/6-31g(d,p)
#Put Keywords Here, check Charge and Multiplicity.

reactants

0  1
O           1.09161         1.26175        -1.68936
H           2.07529         1.33036        -1.82801
H           0.64155         1.73292        -2.42325
C           2.68414         4.66629         2.85914
H           3.33953         5.20190         3.53906
C           3.21686         3.87083         1.84319
H           4.29390         3.78471         1.72818
C           1.29715         4.76265         2.99183
H           0.86647         5.37525         3.77939
C           2.38638         3.17720         0.96176
H           2.81435         2.56275         0.17428
C           0.45342         4.07511         2.12157
H          -0.62621         4.13805         2.22095
C           0.99524         3.28010         1.10355
O           0.12592         2.62832         0.27105
H           0.60964         2.06738        -0.42403
C          -1.77740         4.54494        -4.23441
H          -1.06751         4.76213        -5.03613
H          -2.19559         5.48218        -3.85912
H          -2.58295         3.94413        -4.66576
C          -1.07218         3.72127        -3.17125
O          -0.48854         2.67488        -3.48544
N          -1.13126         4.18694        -1.90737
H          -0.70149         3.67275        -1.13506
H          -1.60603         5.05016        -1.69993
C           6.52122        -3.58782         0.59595
H           7.03185        -3.84303        -0.34241
H           6.31334        -4.51846         1.12513
H           7.20295        -2.99165         1.21570
N           5.26238        -2.90789         0.36889
H           4.40168        -3.36516         0.67202
C           5.15598        -1.69974        -0.22530
N           6.24012        -1.04690        -0.65873
H           7.13452        -1.50619        -0.64475
H           6.12925        -0.15110        -1.20262
N           3.95916        -1.13854        -0.36616
H           3.13213        -1.62656        -0.04558
H           3.86930        -0.21981        -0.85839
C           0.42435        -4.65889         1.33547
H           0.69823        -5.65228         1.68742
H          -0.22680        -4.73524         0.45987
H          -0.13948        -4.13541         2.11443
C           1.67617        -3.88031         0.99891
O           2.80250        -4.30087         1.20256
O           1.49890        -2.66783         0.46457
H           0.53982        -2.43017         0.29015
C           4.58412         2.97072        -3.05895
H           5.51994         3.26754        -3.53387
H           4.22625         3.78381        -2.41844
H           3.81827         2.80050        -3.82228
C           4.77513         1.71007        -2.22196
O           5.92549         1.23187        -2.10552
O           3.72258         1.22425        -1.67214
O          -0.96402        -1.96405        -0.09987
C          -1.34372        -0.58231         0.16443
C          -1.08226        -1.04290        -1.22711
C          -2.12724        -1.32949        -2.24956
C          -2.91588        -2.48394        -2.21307
C          -3.86754        -2.71763        -3.20673
C          -4.03836        -1.80050        -4.24360
C          -3.24569        -0.65117        -4.28810
C          -2.28936        -0.41587        -3.30193
C          -2.68493        -0.32227         0.75605
C          -3.00656         1.00290         1.08425
C          -4.25047         1.30539         1.63468
C          -5.17830         0.28963         1.87649
C          -4.85396        -1.03133         1.56656
C          -3.61263        -1.33818         1.00789
H          -0.53817         0.00995         0.59714
H          -0.12046        -0.71247        -1.62038
H          -2.76823        -3.20347        -1.41537
H          -4.47219        -3.61938        -3.17152
H          -4.77886        -1.98308        -5.01693
H          -3.36583         0.06206        -5.09837
H          -1.66948         0.47599        -3.34943
H          -2.27430         1.78601         0.90607
H          -4.49335         2.33447         1.88342
H          -6.14516         0.52612         2.31110
H          -5.56688        -1.82710         1.76237
H          -3.35253        -2.36527         0.78013

products

0  1
O           0.07482         1.20761        -0.34170
H           1.72698         1.07997        -0.48877
H          -0.30792         1.41711        -1.23053
C           2.47372         5.95410         2.52304
H           3.23450         6.53512         3.03423
C           2.67748         4.59901         2.26302
H           3.60034         4.11705         2.57261
C           1.27712         6.55375         2.12171
H           1.10332         7.60713         2.32225
C           1.70280         3.84393         1.60727
H           1.86830         2.78887         1.41012
C           0.29564         5.81333         1.46711
H          -0.64109         6.26788         1.16043
C           0.50784         4.45481         1.20602
O          -0.48455         3.76943         0.56037
H          -0.24224         2.82566         0.42454
C          -1.57765         3.52010        -4.47416
H          -0.68028         3.63096        -5.08931
H          -2.22246         4.38910        -4.62432
H          -2.09494         2.61883        -4.81230
C          -1.15752         3.31580        -3.03309
O          -0.47883         2.32354        -2.72063
N          -1.54914         4.24045        -2.13718
H          -1.24504         4.16814        -1.16407
H          -2.09939         5.03510        -2.41981
C           6.14058        -4.27627        -1.07638
H           6.25013        -4.02793        -2.14245
H           6.04374        -5.35994        -0.99977
H           7.05690        -3.97815        -0.55186
N           4.96135        -3.68326        -0.48100
H           4.14766        -4.31467        -0.23558
C           4.77333        -2.36782        -0.36796
N           5.71147        -1.48735        -0.80041
H           6.40955        -1.81982        -1.44572
H           5.43376        -0.51064        -0.90578
N           3.67623        -1.91246         0.23565
H           2.90031        -2.58123         0.46237
H           3.45212        -0.92810         0.15584
C           0.53909        -5.71501         0.31582
H           0.71924        -6.63495        -0.24209
H          -0.32830        -5.18485        -0.08655
H           0.31033        -5.97345         1.35588
C           1.76817        -4.81360         0.28614
O           2.87354        -5.31388        -0.03159
O           1.58800        -3.58958         0.61952
H           0.11208        -2.85930         0.58320
C           2.89378         2.76975        -1.91969
H           3.60303         3.18009        -2.63751
H           2.67928         3.52171        -1.15203
H           1.94842         2.52673        -2.41500
C           3.49996         1.55353        -1.26297
O           4.66316         1.21885        -1.40271
O           2.69706         0.83737        -0.45854
O          -0.69954        -2.29686         0.44211
C          -0.54239         0.07281         0.33379
C          -0.35029        -1.26764        -0.45172
C          -1.14258        -1.35200        -1.74769
C          -2.41172        -1.94603        -1.76362
C          -3.14209        -2.02316        -2.94823
C          -2.61478        -1.51044        -4.13651
C          -1.34888        -0.92504        -4.13201
C          -0.61786        -0.85140        -2.94431
C          -1.97218         0.35963         0.74486
C          -2.82917         1.15434        -0.02606
C          -4.14518         1.38036         0.37959
C          -4.62610         0.80747         1.55654
C          -3.78225         0.00405         2.32551
C          -2.46548        -0.21500         1.92428
H           0.05985        -0.05020         1.23790
H           0.71925        -1.31651        -0.70362
H          -2.80124        -2.36124        -0.84117
H          -4.12291        -2.49079        -2.94682
H          -3.18214        -1.57938        -5.06067
H          -0.92076        -0.53873        -5.05292
H           0.37429        -0.40864        -2.95504
H          -2.47855         1.59709        -0.95229
H          -4.79498         2.00302        -0.22886
H          -5.65005         0.98498         1.87246
H          -4.14736        -0.44926         3.24254
H          -1.81445        -0.85207         2.51332

TS guess

0  1
O           0.08698         1.34609        -0.65784
H           1.10319         1.17069        -0.90077
H          -0.36463         1.74210        -1.44815
C           2.94140         5.35909         2.71439
H           3.77693         5.85230         3.20109
C           3.13828         4.17506         2.00246
H           4.13147         3.74110         1.93039
C           1.65663         5.90163         2.79507
H           1.48821         6.82139         3.34849
C           2.07137         3.53219         1.37218
H           2.23586         2.61471         0.81395
C           0.58064         5.27137         2.17322
H          -0.42393         5.67849         2.23618
C           0.78674         4.08494         1.45964
O          -0.30266         3.50397         0.86544
H          -0.05767         2.65115         0.41769
C          -1.76779         4.49565        -4.06638
H          -0.91800         4.52314        -4.75417
H          -2.15555         5.50906        -3.93886
H          -2.53755         3.86941        -4.52363
C          -1.32161         3.84752        -2.76991
O          -0.94503         2.66485        -2.77088
N          -1.35807         4.61152        -1.66232
H          -1.03173         4.25484        -0.76087
H          -1.64761         5.57450        -1.71552
C           6.17779        -3.96173        -0.32920
H           6.34852        -4.02643        -1.41368
H           6.16421        -4.97884         0.06456
H           7.02503        -3.43306         0.12585
N           4.91372        -3.33925         0.00079
H           4.16022        -3.92834         0.41170
C           4.60816        -2.06917        -0.30344
N           5.49337        -1.26662        -0.92560
H           6.30245        -1.68369        -1.35480
H           5.15124        -0.36716        -1.31421
N           3.42653        -1.57541         0.06378
H           2.71251        -2.21801         0.43742
H           3.13354        -0.65936        -0.30053
C           0.58467        -5.57582         1.16156
H           0.95989        -6.59805         1.10624
H          -0.20379        -5.42318         0.41825
H           0.13577        -5.41004         2.14695
C           1.71530        -4.57542         0.94682
O           2.89288        -4.97976         0.93735
O           1.37028        -3.33882         0.80890
H           0.04223        -2.95093         0.40692
C           2.80303         2.73122        -2.51153
H           3.49077         3.04365        -3.29799
H           2.74342         3.52509        -1.75808
H           1.79834         2.59407        -2.92217
C           3.30655         1.45434        -1.84680
O           4.47199         1.07896        -2.05533
O           2.47797         0.84211        -1.06070
O          -0.84885        -2.57555        -0.00412
C          -0.80302        -0.47547         0.08084
C          -0.50350        -1.55272        -0.92377
C          -1.25760        -1.64849        -2.23617
C          -2.10936        -2.73194        -2.47761
C          -2.77022        -2.84857        -3.70203
C          -2.58637        -1.88511        -4.69451
C          -1.73099        -0.80663        -4.45916
C          -1.06361        -0.69140        -3.24044
C          -2.09869         0.01942         0.50588
C          -3.27964        -0.12326        -0.25141
C          -4.48173         0.38015         0.23272
C          -4.52664         1.03972         1.46455
C          -3.36254         1.19817         2.22076
C          -2.15976         0.69078         1.74576
H          -0.02172        -0.40895         0.82877
H           0.57359        -1.54519        -1.13187
H          -2.24466        -3.47280        -1.69806
H          -3.42745        -3.69518        -3.87949
H          -3.10144        -1.97603        -5.64654
H          -1.57704        -0.05216        -5.22484
H          -0.39871         0.14841        -3.07581
H          -3.25175        -0.63310        -1.20473
H          -5.38832         0.25930        -0.35181
H          -5.46980         1.43128         1.83453
H          -3.39460         1.71380         3.17496
H          -1.25163         0.81610         2.32719

